120 2464.0 5318.0 6620.1 7845.0 9339.0
180 2464.0 5023.0 6106.0 6917.0 9128.0
240 2855.0 4759.0 6104.1 7532.0 9128.0
300 2855.0 4842.0 6099.9 8065.0 8578.0
360 2464.0 4842.0 5693.3 6693.0 7148.0
420 2226.0 4842.0 5659.1 6693.0 7148.0
480 2226.0 4234.0 5467.3 6693.0 8065.0
540 2226.0 4234.0 5138.8 6225.0 8065.0
600 1226.0 4556.0 5073.5 6582.0 7210.0
660 1226.0 4591.0 5152.4 6582.0 7148.0
720 1226.0 3669.0 4706.7 5573.0 7148.0
780 1106.0 3669.0 4500.6 5573.0 6582.0
840 978.0 3290.0 3938.1 4690.0 6557.0
900 978.0 2924.0 3871.8 4690.0 6557.0
960 978.0 2858.0 3371.7 3828.0 6557.0
1020 978.0 2633.0 3069.2 3105.0 5573.0
1080 978.0 2704.0 3415.3 4840.0 6253.0
1140 777.0 2704.0 3227.7 3822.0 5313.0
1200 1106.0 2168.0 2874.9 3408.0 5171.0
1260 523.0 2168.0 2735.2 3710.0 5171.0
1320 523.0 2168.0 2732.0 3710.0 5171.0
1380 523.0 2168.0 2732.0 3710.0 5171.0
1440 523.0 1941.0 2780.2 3515.0 6225.0
1500 523.0 1941.0 2667.6 3628.0 4085.0
1560 523.0 1941.0 2556.4 3515.0 4085.0
1620 523.0 1941.0 2479.3 3058.0 3789.0
1680 523.0 1695.0 2731.1 3058.0 7002.0
1740 523.0 1695.0 2561.5 2924.0 6225.0
1800 523.0 1695.0 2633.2 2924.0 6225.0
1860 523.0 2005.0 2699.7 3058.0 6225.0
1920 523.0 1620.0 2664.5 3058.0 6225.0
1980 523.0 1475.0 2599.5 3515.0 6225.0
2040 523.0 1475.0 2497.2 2924.0 6225.0
2100 523.0 1475.0 2499.2 3058.0 6225.0
2160 523.0 1475.0 2238.3 2924.0 4576.0
2220 523.0 1570.0 2203.1 2924.0 4576.0
2280 523.0 1475.0 2218.0 2924.0 4576.0
2340 523.0 1475.0 2121.6 2671.0 4576.0
2400 523.0 1464.0 1987.6 2172.0 4576.0
2460 523.0 1464.0 2084.5 2326.0 4576.0
2520 523.0 1475.0 2148.4 2704.0 4576.0
2580 523.0 1475.0 1625.4 1843.0 2606.0
2640 523.0 1351.0 1879.8 2172.0 4576.0
2700 523.0 1351.0 1881.0 2172.0 4576.0
2760 523.0 1351.0 1880.5 2172.0 4576.0
2820 523.0 1351.0 1955.7 2449.0 4576.0
2880 523.0 1351.0 1892.0 2172.0 4576.0
2940 523.0 1404.0 1911.0 2172.0 4576.0
3000 523.0 1410.0 1867.2 2172.0 4576.0
3060 523.0 1410.0 1867.2 2172.0 4576.0
3120 523.0 1410.0 1806.1 1864.0 4576.0
3180 523.0 1410.0 1827.3 2172.0 4576.0
3240 523.0 1358.0 1819.0 2172.0 4576.0
3300 523.0 1358.0 1819.0 2172.0 4576.0
3360 523.0 1358.0 1819.0 2172.0 4576.0
3420 523.0 1358.0 1752.9 1636.0 4576.0
3480 523.0 1410.0 1761.6 1636.0 4576.0
3540 523.0 1410.0 1539.9 1636.0 2210.0
3600 523.0 1410.0 1799.5 1866.0 4576.0
3660 523.0 1410.0 1702.5 1590.0 3886.0
3720 523.0 1410.0 1773.4 2172.0 3886.0
3780 523.0 1351.0 1728.5 1590.0 4576.0
3840 523.0 1160.0 1696.4 1590.0 4576.0
3900 523.0 1160.0 1696.4 1590.0 4576.0
3960 523.0 1369.0 1717.3 1590.0 4576.0
4020 523.0 1369.0 1530.9 1590.0 2712.0
4080 523.0 1369.0 1530.9 1590.0 2712.0
4140 523.0 1358.0 1485.3 1590.0 2339.0
4200 523.0 1358.0 1694.1 1587.0 4576.0
4260 523.0 1358.0 1679.1 1587.0 4143.0
4320 523.0 1313.0 1643.7 1587.0 4143.0
4380 523.0 1313.0 1622.1 1587.0 4143.0
4440 523.0 1030.0 1588.2 1441.0 4576.0
4500 523.0 1030.0 1588.2 1441.0 4576.0
4560 523.0 1030.0 1588.2 1441.0 4576.0
4620 523.0 1030.0 1588.2 1441.0 4576.0
4680 523.0 1030.0 1588.2 1441.0 4576.0
4740 523.0 1030.0 1588.2 1441.0 4576.0
4800 523.0 1030.0 1588.2 1441.0 4576.0
4860 523.0 1030.0 1588.2 1441.0 4576.0
4920 523.0 1030.0 1519.9 1441.0 4576.0
4980 523.0 1030.0 1505.7 1441.0 4576.0
5040 523.0 1030.0 1505.7 1441.0 4576.0
5100 523.0 1030.0 1588.2 1441.0 4576.0
5160 523.0 1030.0 1588.2 1441.0 4576.0
5220 523.0 1030.0 1552.8 1441.0 4576.0
5280 523.0 1030.0 1552.8 1441.0 4576.0
5340 523.0 1030.0 1555.4 1441.0 4576.0
5400 523.0 1030.0 1555.4 1441.0 4576.0
5460 523.0 1030.0 1555.4 1441.0 4576.0
5520 523.0 1030.0 1486.6 1441.0 4232.0
5580 523.0 1030.0 1555.4 1441.0 4576.0
5640 523.0 1030.0 1521.0 1441.0 4576.0
5700 523.0 1030.0 1336.5 1441.0 2731.0
5760 523.0 1030.0 1521.0 1441.0 4576.0
5820 523.0 1030.0 1521.0 1441.0 4576.0
5880 523.0 1030.0 1513.1 1441.0 4576.0
5940 523.0 1030.0 1513.1 1441.0 4576.0
6000 523.0 1030.0 1382.5 1441.0 3270.0
6060 523.0 1030.0 1513.1 1441.0 4576.0
6120 523.0 1030.0 1513.1 1441.0 4576.0
6180 523.0 1030.0 1513.1 1441.0 4576.0
6240 523.0 1030.0 1530.7 1441.0 4576.0
6300 523.0 1030.0 1513.1 1441.0 4576.0
6360 523.0 1030.0 1513.1 1441.0 4576.0
6420 523.0 1030.0 1513.1 1441.0 4576.0
6480 523.0 1030.0 1513.1 1441.0 4576.0
6540 523.0 1030.0 1492.5 1441.0 4576.0
6600 523.0 1030.0 1486.5 1441.0 4576.0
6660 523.0 862.0 1463.1 1441.0 4576.0
6720 523.0 862.0 1460.7 1441.0 4576.0
6780 523.0 862.0 1460.7 1441.0 4576.0
6840 523.0 862.0 1460.7 1441.0 4576.0
6900 523.0 1030.0 1481.7 1441.0 4576.0
6960 523.0 1030.0 1518.6 1441.0 4576.0
7020 523.0 926.0 1374.1 1410.0 4143.0
7080 523.0 926.0 1360.1 1410.0 4143.0
7140 523.0 926.0 1360.1 1410.0 4143.0
7200 523.0 926.0 1360.1 1410.0 4143.0
7260 523.0 926.0 1360.1 1410.0 4143.0
7320 523.0 926.0 1403.4 1410.0 4576.0
7380 523.0 926.0 1403.4 1410.0 4576.0
7440 523.0 926.0 1403.4 1410.0 4576.0
7500 523.0 926.0 1376.0 1136.0 4576.0
7560 523.0 926.0 1171.9 1051.0 3143.0
7620 523.0 926.0 1315.2 1051.0 4576.0
7680 523.0 926.0 1315.2 1051.0 4576.0
7740 523.0 926.0 1315.2 1051.0 4576.0
7800 523.0 926.0 1315.2 1051.0 4576.0
7860 523.0 926.0 1315.2 1051.0 4576.0
7920 523.0 926.0 1315.2 1051.0 4576.0
7980 523.0 822.0 1301.7 1051.0 4576.0
8040 523.0 926.0 1315.2 1051.0 4576.0
8100 523.0 926.0 1325.7 1051.0 4576.0
8160 523.0 926.0 1315.2 1051.0 4576.0
8220 523.0 926.0 1315.2 1051.0 4576.0
8280 523.0 926.0 1315.2 1051.0 4576.0
8340 523.0 926.0 1287.8 1051.0 4576.0
8400 523.0 926.0 1287.8 1051.0 4576.0
8460 523.0 926.0 1287.8 1051.0 4576.0
8520 523.0 926.0 1321.4 1136.0 4576.0
8580 523.0 926.0 1287.8 1051.0 4576.0
8640 523.0 926.0 1287.8 1051.0 4576.0
8700 523.0 926.0 1315.2 1051.0 4576.0
8760 523.0 926.0 1332.6 1108.0 4576.0
8820 523.0 926.0 1332.6 1108.0 4576.0
8880 523.0 926.0 1179.7 1108.0 3047.0
8940 523.0 926.0 1179.7 1108.0 3047.0
9000 523.0 926.0 1179.7 1108.0 3047.0
9060 523.0 926.0 1179.7 1108.0 3047.0
9120 523.0 926.0 1179.7 1108.0 3047.0
9180 523.0 926.0 1162.3 1051.0 3047.0
9240 523.0 926.0 1162.3 1051.0 3047.0
9300 523.0 926.0 1162.3 1051.0 3047.0
9360 523.0 926.0 1162.3 1051.0 3047.0
9420 523.0 926.0 1128.9 1051.0 3047.0
9480 523.0 926.0 1128.9 1051.0 3047.0
9540 523.0 926.0 1026.5 1051.0 2023.0
9600 523.0 926.0 1025.5 1051.0 2013.0
9660 523.0 926.0 1026.5 1051.0 2023.0
9720 523.0 926.0 1026.5 1051.0 2023.0
9780 523.0 926.0 1063.6 1051.0 2394.0
9840 523.0 926.0 1026.5 1051.0 2023.0
9900 523.0 926.0 1026.5 1051.0 2023.0
9960 523.0 926.0 1026.5 1051.0 2023.0
10020 523.0 926.0 1063.6 1051.0 2394.0
10080 523.0 926.0 1025.4 1051.0 2023.0
10140 523.0 926.0 1062.5 1051.0 2394.0
10200 523.0 926.0 1062.5 1051.0 2394.0
10260 523.0 926.0 1028.8 1051.0 2023.0
10320 523.0 822.0 998.8 1051.0 2023.0
10380 523.0 822.0 998.8 1051.0 2023.0
10440 523.0 926.0 1028.8 1051.0 2023.0
10500 523.0 926.0 1028.8 1051.0 2023.0
10560 523.0 926.0 1035.6 1051.0 2023.0
10620 523.0 926.0 1035.6 1051.0 2023.0
10680 523.0 822.0 1001.1 1051.0 2023.0
10740 523.0 822.0 1001.1 1051.0 2023.0
10800 523.0 822.0 1001.1 1051.0 2023.0
10860 523.0 822.0 1011.6 1051.0 2128.0
10920 523.0 822.0 1001.1 1051.0 2023.0
10980 523.0 822.0 1001.1 1051.0 2023.0
11040 523.0 822.0 1001.1 1051.0 2023.0
11100 523.0 822.0 1001.1 1051.0 2023.0
11160 523.0 822.0 1002.2 1051.0 2023.0
11220 523.0 822.0 1002.2 1051.0 2023.0
11280 523.0 822.0 1039.3 1051.0 2394.0
11340 523.0 822.0 1002.2 1051.0 2023.0
11400 523.0 822.0 1039.3 1051.0 2394.0
11460 523.0 822.0 974.1 1051.0 1742.0
11520 523.0 822.0 974.1 1051.0 1742.0
11580 523.0 822.0 974.1 1051.0 1742.0
11640 523.0 822.0 964.4 1051.0 1742.0
11700 523.0 822.0 964.4 1051.0 1742.0
11760 523.0 822.0 973.3 1051.0 1742.0
11820 523.0 822.0 973.3 1051.0 1742.0
11880 523.0 822.0 973.3 1051.0 1742.0
11940 523.0 822.0 973.3 1051.0 1742.0
12000 523.0 822.0 963.4 1051.0 1742.0
12060 523.0 822.0 963.4 1051.0 1742.0
12120 523.0 822.0 963.4 1051.0 1742.0
12180 523.0 822.0 963.4 1051.0 1742.0
12240 523.0 822.0 963.4 1051.0 1742.0
12300 523.0 822.0 963.4 1051.0 1742.0
12360 523.0 822.0 963.4 1051.0 1742.0
12420 523.0 822.0 963.4 1051.0 1742.0
12480 523.0 822.0 963.4 1051.0 1742.0
12540 523.0 822.0 991.3 1066.0 1742.0
12600 523.0 822.0 963.4 1051.0 1742.0
12660 523.0 822.0 963.4 1051.0 1742.0
12720 523.0 822.0 963.4 1051.0 1742.0
12780 523.0 822.0 951.7 1051.0 1625.0
12840 523.0 822.0 963.4 1051.0 1742.0
12900 523.0 822.0 963.4 1051.0 1742.0
12960 523.0 822.0 977.9 1066.0 1625.0
13020 523.0 822.0 951.7 1051.0 1625.0
13080 523.0 822.0 917.2 1051.0 1280.0
13140 523.0 822.0 917.2 1051.0 1280.0
13200 523.0 822.0 917.2 1051.0 1280.0
13260 523.0 822.0 917.2 1051.0 1280.0
13320 523.0 822.0 917.2 1051.0 1280.0
13380 523.0 822.0 917.2 1051.0 1280.0
13440 523.0 822.0 917.2 1051.0 1280.0
13500 523.0 822.0 917.2 1051.0 1280.0
13560 523.0 822.0 917.2 1051.0 1280.0
13620 523.0 822.0 919.0 1051.0 1280.0
13680 523.0 822.0 919.0 1051.0 1280.0
13740 523.0 822.0 919.0 1051.0 1280.0
13800 523.0 822.0 919.0 1051.0 1280.0
13860 523.0 822.0 919.0 1051.0 1280.0
13920 523.0 822.0 919.0 1051.0 1280.0
13980 523.0 822.0 919.0 1051.0 1280.0
14040 523.0 822.0 919.0 1051.0 1280.0
14100 523.0 799.0 901.1 1051.0 1280.0
14160 523.0 822.0 919.0 1051.0 1280.0
14220 523.0 822.0 919.0 1051.0 1280.0
14280 523.0 822.0 919.0 1051.0 1280.0
14340 523.0 822.0 919.0 1051.0 1280.0
14400 523.0 822.0 919.0 1051.0 1280.0
14460 523.0 822.0 919.0 1051.0 1280.0
14520 523.0 822.0 919.0 1051.0 1280.0
14580 523.0 822.0 919.0 1051.0 1280.0
14640 523.0 822.0 919.0 1051.0 1280.0
14700 523.0 822.0 919.0 1051.0 1280.0
14760 523.0 822.0 919.0 1051.0 1280.0
14820 523.0 822.0 919.0 1051.0 1280.0
14880 523.0 822.0 920.0 1051.0 1280.0
14940 523.0 822.0 902.9 1051.0 1280.0
15000 523.0 822.0 902.9 1051.0 1280.0
15060 523.0 822.0 920.0 1051.0 1280.0
15120 523.0 822.0 920.0 1051.0 1280.0
15180 523.0 659.0 885.5 1051.0 1280.0
15240 523.0 659.0 885.5 1051.0 1280.0
15300 523.0 659.0 885.5 1051.0 1280.0
15360 523.0 659.0 885.5 1051.0 1280.0
15420 523.0 659.0 885.5 1051.0 1280.0
15480 523.0 659.0 885.5 1051.0 1280.0
15540 523.0 659.0 885.5 1051.0 1280.0
15600 523.0 659.0 885.5 1051.0 1280.0
15660 523.0 659.0 885.5 1051.0 1280.0
15720 523.0 659.0 885.5 1051.0 1280.0
15780 523.0 659.0 885.5 1051.0 1280.0
15840 523.0 659.0 864.6 1030.0 1280.0
15900 523.0 659.0 872.8 1030.0 1280.0
15960 523.0 659.0 872.8 1030.0 1280.0
16020 523.0 659.0 872.8 1030.0 1280.0
16080 523.0 659.0 872.8 1030.0 1280.0
16140 523.0 605.0 847.8 1030.0 1280.0
16200 523.0 605.0 847.8 1030.0 1280.0
16260 523.0 605.0 858.1 1030.0 1383.0
16320 523.0 659.0 878.4 1030.0 1383.0
16380 446.0 581.0 805.0 1030.0 1152.0
16440 446.0 581.0 784.7 1030.0 1152.0
16500 446.0 581.0 784.7 1030.0 1152.0
16560 446.0 581.0 784.7 1030.0 1152.0
16620 446.0 581.0 784.7 1030.0 1152.0
16680 446.0 581.0 784.7 1030.0 1152.0
16740 446.0 581.0 784.7 1030.0 1152.0
16800 446.0 523.0 768.4 1030.0 1152.0
16860 446.0 523.0 768.4 1030.0 1152.0
16920 446.0 523.0 768.4 1030.0 1152.0
16980 446.0 523.0 768.4 1030.0 1152.0
17040 446.0 523.0 768.4 1030.0 1152.0
17100 446.0 523.0 768.4 1030.0 1152.0
17160 446.0 581.0 784.7 1030.0 1152.0
17220 446.0 581.0 784.7 1030.0 1152.0
17280 446.0 581.0 784.7 1030.0 1152.0
17340 446.0 581.0 784.7 1030.0 1152.0
17400 446.0 581.0 784.7 1030.0 1152.0
17460 446.0 581.0 784.7 1030.0 1152.0
17520 446.0 581.0 784.7 1030.0 1152.0
17580 446.0 581.0 784.7 1030.0 1152.0
17640 446.0 581.0 784.7 1030.0 1152.0
17700 446.0 581.0 784.7 1030.0 1152.0
17760 446.0 581.0 784.7 1030.0 1152.0
17820 446.0 581.0 784.7 1030.0 1152.0
17880 446.0 581.0 784.7 1030.0 1152.0
17940 446.0 581.0 784.7 1030.0 1152.0
18000 446.0 581.0 784.7 1030.0 1152.0
18060 446.0 581.0 784.7 1030.0 1152.0
18120 446.0 581.0 784.7 1030.0 1152.0
18180 446.0 581.0 763.0 1030.0 1152.0
18240 446.0 581.0 763.0 1030.0 1152.0
18300 446.0 581.0 763.0 1030.0 1152.0
18360 446.0 581.0 763.0 1030.0 1152.0
18420 446.0 581.0 763.0 1030.0 1152.0
18480 446.0 581.0 763.0 1030.0 1152.0
18540 446.0 581.0 763.0 1030.0 1152.0
18600 446.0 581.0 763.0 1030.0 1152.0
18660 446.0 581.0 763.0 1030.0 1152.0
18720 446.0 581.0 763.0 1030.0 1152.0
18780 446.0 581.0 763.0 1030.0 1152.0
18840 446.0 581.0 763.0 1030.0 1152.0
18900 446.0 581.0 763.0 1030.0 1152.0
18960 446.0 581.0 763.0 1030.0 1152.0
19020 446.0 581.0 724.9 978.0 1152.0
19080 446.0 581.0 719.7 978.0 1051.0
19140 446.0 581.0 719.7 978.0 1051.0
19200 446.0 581.0 719.7 978.0 1051.0
19260 446.0 581.0 719.7 978.0 1051.0
19320 446.0 555.0 717.1 978.0 1051.0
19380 446.0 581.0 719.7 978.0 1051.0
19440 446.0 555.0 717.1 978.0 1051.0
19500 446.0 581.0 719.7 978.0 1051.0
19560 446.0 581.0 719.7 978.0 1051.0
19620 446.0 581.0 719.7 978.0 1051.0
19680 446.0 581.0 719.7 978.0 1051.0
19740 446.0 581.0 719.7 978.0 1051.0
19800 446.0 581.0 719.7 978.0 1051.0
19860 446.0 581.0 719.7 978.0 1051.0
19920 446.0 581.0 719.7 978.0 1051.0
19980 446.0 581.0 719.7 978.0 1051.0
20040 446.0 581.0 719.7 978.0 1051.0
20100 446.0 581.0 719.7 978.0 1051.0
20160 446.0 581.0 717.0 978.0 1051.0
20220 446.0 581.0 719.7 978.0 1051.0
20280 446.0 581.0 719.7 978.0 1051.0
20340 446.0 581.0 719.7 978.0 1051.0
20400 446.0 581.0 719.7 978.0 1051.0
20460 446.0 581.0 719.7 978.0 1051.0
20520 446.0 581.0 719.7 978.0 1051.0
20580 446.0 581.0 719.7 978.0 1051.0
20640 446.0 581.0 719.7 978.0 1051.0
20700 446.0 581.0 719.7 978.0 1051.0
20760 446.0 581.0 719.7 978.0 1051.0
20820 446.0 581.0 719.7 978.0 1051.0
20880 446.0 581.0 719.7 978.0 1051.0
20940 446.0 581.0 719.7 978.0 1051.0
21000 446.0 581.0 719.7 978.0 1051.0
21060 446.0 581.0 719.7 978.0 1051.0
21120 446.0 581.0 719.7 978.0 1051.0
21180 446.0 581.0 719.7 978.0 1051.0
21240 446.0 581.0 719.7 978.0 1051.0
21300 446.0 581.0 719.7 978.0 1051.0
21360 446.0 581.0 719.7 978.0 1051.0
21420 446.0 581.0 719.7 978.0 1051.0
21480 446.0 581.0 719.7 978.0 1051.0
21540 446.0 581.0 719.7 978.0 1051.0
21600 446.0 581.0 719.7 978.0 1051.0
21660 446.0 581.0 719.7 978.0 1051.0
21720 446.0 581.0 719.7 978.0 1051.0
21780 446.0 581.0 719.7 978.0 1051.0
21840 446.0 581.0 719.7 978.0 1051.0
21900 446.0 581.0 719.7 978.0 1051.0
21960 446.0 581.0 719.7 978.0 1051.0
22020 446.0 581.0 719.7 978.0 1051.0
22080 446.0 581.0 719.7 978.0 1051.0
22140 446.0 581.0 719.7 978.0 1051.0
22200 446.0 581.0 719.7 978.0 1051.0
22260 446.0 581.0 719.7 978.0 1051.0
22320 446.0 580.0 705.8 978.0 1051.0
22380 446.0 580.0 705.8 978.0 1051.0
22440 446.0 580.0 705.8 978.0 1051.0
22500 446.0 580.0 705.8 978.0 1051.0
22560 446.0 580.0 705.8 978.0 1051.0
22620 446.0 580.0 705.8 978.0 1051.0
22680 446.0 580.0 705.8 978.0 1051.0
22740 446.0 580.0 677.0 763.0 1030.0
22800 446.0 580.0 677.0 763.0 1030.0
22860 446.0 529.0 700.7 978.0 1051.0
22920 446.0 580.0 705.8 978.0 1051.0
22980 446.0 581.0 719.7 978.0 1051.0
23040 446.0 581.0 719.7 978.0 1051.0
23100 446.0 581.0 719.7 978.0 1051.0
23160 446.0 581.0 719.7 978.0 1051.0
23220 446.0 581.0 719.7 978.0 1051.0
23280 446.0 581.0 719.7 978.0 1051.0
23340 446.0 581.0 719.7 978.0 1051.0
23400 446.0 581.0 719.7 978.0 1051.0
23460 446.0 581.0 719.7 978.0 1051.0
23520 446.0 581.0 719.7 978.0 1051.0
23580 446.0 581.0 719.7 978.0 1051.0
23640 446.0 581.0 719.7 978.0 1051.0
23700 446.0 581.0 719.7 978.0 1051.0
23760 446.0 581.0 719.7 978.0 1051.0
23820 446.0 581.0 719.7 978.0 1051.0
23880 446.0 581.0 719.7 978.0 1051.0
23940 446.0 581.0 719.7 978.0 1051.0
24000 446.0 581.0 719.7 978.0 1051.0
24060 446.0 581.0 719.7 978.0 1051.0
24120 446.0 581.0 719.7 978.0 1051.0
24180 446.0 581.0 719.7 978.0 1051.0
24240 446.0 581.0 719.7 978.0 1051.0
24300 446.0 581.0 719.7 978.0 1051.0
24360 446.0 581.0 719.7 978.0 1051.0
24420 446.0 581.0 719.7 978.0 1051.0
24480 446.0 581.0 719.7 978.0 1051.0
24540 446.0 581.0 719.7 978.0 1051.0
24600 446.0 581.0 719.7 978.0 1051.0
24660 446.0 581.0 719.7 978.0 1051.0
24720 446.0 543.0 702.1 978.0 1051.0
24780 446.0 581.0 719.7 978.0 1051.0
24840 446.0 581.0 719.7 978.0 1051.0
24900 446.0 581.0 719.7 978.0 1051.0
24960 446.0 581.0 719.7 978.0 1051.0
25020 446.0 581.0 719.7 978.0 1051.0
25080 446.0 581.0 719.7 978.0 1051.0
25140 446.0 581.0 719.7 978.0 1051.0
25200 446.0 581.0 719.7 978.0 1051.0
25260 446.0 581.0 719.7 978.0 1051.0
25320 446.0 581.0 719.7 978.0 1051.0
25380 446.0 581.0 719.7 978.0 1051.0
25440 446.0 581.0 719.7 978.0 1051.0
25500 446.0 581.0 719.7 978.0 1051.0
25560 446.0 581.0 719.7 978.0 1051.0
25620 446.0 581.0 719.7 978.0 1051.0
25680 446.0 581.0 719.7 978.0 1051.0
25740 446.0 581.0 719.7 978.0 1051.0
25800 446.0 581.0 719.7 978.0 1051.0
25860 446.0 581.0 719.7 978.0 1051.0
25920 446.0 581.0 719.7 978.0 1051.0
25980 446.0 581.0 719.7 978.0 1051.0
26040 446.0 581.0 719.7 978.0 1051.0
26100 446.0 581.0 719.7 978.0 1051.0
26160 446.0 581.0 719.7 978.0 1051.0
26220 446.0 581.0 719.7 978.0 1051.0
26280 446.0 581.0 719.7 978.0 1051.0
26340 446.0 581.0 719.7 978.0 1051.0
26400 446.0 581.0 749.1 1030.0 1272.0
26460 446.0 581.0 749.1 1030.0 1272.0
26520 446.0 581.0 749.1 1030.0 1272.0
26580 446.0 581.0 749.1 1030.0 1272.0
26640 446.0 581.0 718.3 964.0 1051.0
26700 446.0 581.0 718.3 964.0 1051.0
26760 446.0 581.0 718.3 964.0 1051.0
26820 446.0 581.0 718.3 964.0 1051.0
26880 446.0 581.0 718.3 964.0 1051.0
26940 446.0 581.0 718.3 964.0 1051.0
27000 446.0 581.0 718.3 964.0 1051.0
27060 446.0 581.0 718.3 964.0 1051.0
